
Gurobi 11.0.1 (win64) logging started Fri Mar 22 07:08:48 2024

Set parameter LogFile to value "C:\Projetos\Job_Rotation_Algorithms\Outputs\GurobiLogs\gurobi_log-output-34_hes-c133-CostaMirallesModel-NoExtraConstraint-2.log"
Gurobi Optimizer version 11.0.1 build v11.0.1rc0 (win64 - Windows 10.0 (19045.2))

CPU model: 11th Gen Intel(R) Core(TM) i7-1165G7 @ 2.80GHz, instruction set [SSE2|AVX|AVX2|AVX512]
Thread count: 4 physical cores, 8 logical processors, using up to 1 threads

WLS license 901039 - registered to Bitka Analytics
Optimize a model with 485 rows, 988 columns and 7920 nonzeros
Model fingerprint: 0x9e4b2c7a
Variable types: 2 continuous, 986 integer (986 binary)
Coefficient statistics:
  Matrix range     [1e+00, 2e+02]
  Objective range  [1e+00, 1e+00]
  Bounds range     [1e+00, 3e+02]
  RHS range        [1e+00, 3e+02]
Presolve removed 182 rows and 250 columns
Presolve time: 0.03s
Presolved: 303 rows, 738 columns, 4043 nonzeros
Variable types: 0 continuous, 738 integer (737 binary)

Root relaxation: objective 5.500000e+01, 316 iterations, 0.00 seconds (0.00 work units)

    Nodes    |    Current Node    |     Objective Bounds      |     Work
 Expl Unexpl |  Obj  Depth IntInf | Incumbent    BestBd   Gap | It/Node Time

     0     0   55.00000    0   16          -   55.00000      -     -    0s
     0     0   55.00000    0  113          -   55.00000      -     -    0s
     0     0   55.00000    0   87          -   55.00000      -     -    0s
     0     0   55.00000    0   32          -   55.00000      -     -    0s
     0     0   55.00000    0   44          -   55.00000      -     -    0s
     0     0   55.00000    0   26          -   55.00000      -     -    0s
     0     0   55.00000    0   72          -   55.00000      -     -    0s
     0     0   55.00000    0   23          -   55.00000      -     -    0s
     0     0   55.00000    0   23          -   55.00000      -     -    0s
     0     2   55.00000    0   19          -   55.00000      -     -    0s
*  150    26              31      48.0000000   55.00000  14.6%  61.7    0s

Cutting planes:
  Gomory: 1
  Cover: 103
  Implied bound: 14
  Clique: 42
  MIR: 24
  StrongCG: 5
  GUB cover: 2
  Inf proof: 2
  Zero half: 3
  RLT: 1
  Relax-and-lift: 2

Explored 214 nodes (18009 simplex iterations) in 0.70 seconds (0.61 work units)
Thread count was 1 (of 8 available processors)

Solution count 1: 48 

Optimal solution found (tolerance 1.00e-03)
Best objective 4.800000000000e+01, best bound 4.800000000000e+01, gap 0.0000%
